26 2 
92 86 
39 3 
97 44 
18 13 
34 10 
12 9 
61 48 
57 68 
76 9 
30 38 
52 79 
89 84 
37 76 
24 6 
8 51 
8 1 
89 0 
56 38 
96 74 
51 31 
37 15 
40 98 
63 49 
19 91 
59 49 
29 63 
80 70 
48 18 
46 24 
76 55 
27 84 
8 16 
36 64 
6 85 
91 9 
16 28 
24 8 
26 87 
57 45 
79 68 
46 60 
32 79 
31 32 
49 77 
56 25 
84 84 
61 44 
52 50 
61 59 
